NAME : ClusterId_1045 
COMMENT : (Gillet and Johnson) 
TYPE : CVRP 
DIMENSION : 25 
EDGE_WEIGHT_TYPE : EUC_2D 
CAPACITY : 500 
NODE_COORD_SECTION 
1045 9490 200 
772 9837 56 
982 9926 448 
754 9839 646 
75 9217 100 
479 9170 44 
539 9285 418 
290 9867 1339 
327 9674 1052 
473 9227 489 
179 9980 1708 
665 9268 676 
326 9064 565 
636 9316 964 
81 8960 547 
258 9166 934 
429 8940 667 
951 9701 1874 
724 9331 1696 
176 9430 1913 
900 9146 1613 
309 9899 4629 
35 9647 4708 
169 9950 5001 
29 9968 5691 
DEMAND_SECTION 
1045 1078
772 54
982 43
754 47
75 52
479 47
539 30
290 29
327 26
473 29
179 51
665 35
326 46
636 39
81 53
258 50
429 27
951 33
724 52
176 52
900 37
309 38
35 39
169 35
29 54
DEPOT_SECTION 
1045
 -1
EOF